[runlim] version:		1.10
[runlim] time limit:		1800 seconds
[runlim] real time limit:	1800 seconds
[runlim] space limit:		30000 MB
[runlim] argv[0]:		/home/hvanh28/Minizinc/MiniZincIDE-2.8.6-bundle-linux-x86_64/bin/minizinc
[runlim] argv[1]:		--solver
[runlim] argv[2]:		Chuffed
[runlim] argv[3]:		--time-limit
[runlim] argv[4]:		1800000
[runlim] argv[5]:		--output-to-file
[runlim] argv[6]:		2/B-ibm32-1.log
[runlim] argv[7]:		--output-time
[runlim] argv[8]:		--statistics
[runlim] argv[9]:		CP-MZ-Chuffed.mzn
[runlim] argv[10]:		B-ibm32.dzn
[runlim] start:			Mon Oct  7 07:57:32 2024
[runlim] main pid:		545168
[runlim] log captured:
% Generated FlatZinc statistics:
%%%mzn-stat: paths=0
%%%mzn-stat: flatIntVars=212
%%%mzn-stat: flatIntConstraints=181
%%%mzn-stat: method="maximize"
%%%mzn-stat: flatTime=0.175898
%%%mzn-stat-end
WARNING: the --time-out flag has recently been changed.The time-out is now provided in milliseconds instead of seconds
%%%mzn-stat: nSolutions=1
%%%mzn-stat-end
[runlim] end:			Mon Oct  7 07:57:32 2024
[runlim] status:		ok
[runlim] result:		0
[runlim] children:		2
[runlim] real:			0.49 seconds
[runlim] time:			0.28 seconds
[runlim] space:			29.8 MB
[runlim] samples:		4
